==> MAXTIME              = 3600
==> OUTPUTLOG            = 1
==> HEURSTRATEGY         = 0
FICO Xpress v8.5.9, solve started 23:45:49, Jun 8, 2019
Maximizing MILP Seating model
Original problem has:
       230 rows          300 cols         7440 elements       300 globals
Presolved problem has:
       103 rows          204 cols         2431 elements       198 globals
LP relaxation tightened
Will try to keep branch and bound tree memory usage below 7.2GB
Starting concurrent solve with dual

 Concurrent-Solve,   0s
            Dual        
    objective   dual inf
 D  102.00000   .0000000
------- optimal --------
Concurrent statistics:
      Dual: 34 simplex iterations, 0.00s
Optimal solution found
 
   Its         Obj Value      S   Ninf  Nneg   Sum Dual Inf  Time
    34        102.000000      D      0     0        .000000     0
Dual solved problem
  34 simplex iterations in 0s

Final objective                         : 1.020000000000000e+02
  Max primal violation      (abs / rel) : 1.110e-16 / 9.869e-17
  Max dual violation        (abs / rel) :       0.0 /       0.0
  Max complementarity viol. (abs / rel) :       0.0 /       0.0
All values within tolerances

Starting root cutting & heuristics
 
 Its Type    BestSoln    BestBound   Sols    Add    Del     Gap     GInf   Time
   1  K                 102.000000      0     99      0               29      0
   2  K                 102.000000      0    111     81               43      0
   3  K                 102.000000      0     92    101               48      0
   4  K                 102.000000      0     87     94               35      0
   5  K                 102.000000      0    100     83               49      0
   6  K                 102.000000      0     93     97               47      0
   7  K                 102.000000      0     89     88               58      0
   8  K                 102.000000      0     81     91               37      0
   9  K                 102.000000      0     95     87               48      0
  10  K                 102.000000      0     97     89               58      0
  11  K                 102.000000      0     83     86               67      0
  12  K                 102.000000      0     93     82               72      0
  13  K                 102.000000      0     87     85               76      0
  14  K                 102.000000      0      2     83               39      0
  15  K                 102.000000      0      1      7               39      0
  16  K                 102.000000      0      1     13               39      0
  17  K                 102.000000      0     96      8               58      1
  18  K                 102.000000      0      2     91               39      1
  19  K                 102.000000      0     93     14               52      1
  20  K                 102.000000      0     99    150               59      1
  21  G                 102.000000      0     39     31               41      1
  22  G                 102.000000      0     70    110               55      1
 
Cuts in the matrix         : 39
Cut elements in the matrix : 1106
 
Starting tree search.
Deterministic mode with up to 4 running threads and up to 8 tasks.
 
    Node     BestSoln    BestBound   Sols Active  Depth     Gap     GInf   Time
       1                102.000000      0      2      1               45      1
       2                102.000000      0      2      3               47      1
       3                102.000000      0      2      4               38      1
       4                102.000000      0      2      5               49      1
       5                102.000000      0      5      4               38      1
       6                102.000000      0      5      3               48      1
       7                102.000000      0      5      5               50      1
       8                102.000000      0      5      4               41      1
       9                102.000000      0      5      6               37      1
      10                102.000000      0      8      5               29      1
      23                102.000000      0     15      9               54      1
      33                102.000000      0     15     16               39      1
*     47    46.000000   102.000000      1     23     18   54.90%       0      1
      49    46.000000   102.000000      1     23     18   54.90%       9      1
      59    46.000000   102.000000      1     31     14   54.90%      33      1
      77    46.000000   102.000000      1     31     16   54.90%      35      1
      90    46.000000   102.000000      1     31     16   54.90%      36      1
     117    46.000000   102.000000      1     31     30   54.90%       7      1
     226    46.000000   102.000000      1     64     23   54.90%      17      1
B&B tree size: 0.8MB total
 
    Node     BestSoln    BestBound   Sols Active  Depth     Gap     GInf   Time
     326    46.000000   102.000000      1     78     18   54.90%      29      1
*    344    49.000000   102.000000      2     78     21   51.96%       0      1
     428    49.000000   101.434949      2    102     16   51.69%      41      1
     528    49.000000   101.434949      2    102     18   51.69%      26      1
     633    49.000000   101.434949      2    102     21   51.69%      10      1
     746    49.000000   101.434949      2    115     20   51.69%      22      1
     863    49.000000   101.434949      2    180     23   51.69%      33      1
     978    49.000000   101.434949      2    180     21   51.69%      34      2
    1087    49.000000   101.434949      2    219     20   51.69%      25      2
    1197    49.000000   101.434949      2    265     16   51.69%      37      2
    1301    49.000000   101.434949      2    265     27   51.69%      25      2
    1407    49.000000   101.434949      2    320     17   51.69%      29      2
    1512    49.000000   101.434949      2    320     19   51.69%      17      2
*   1569    51.000000   101.434949      3    320     16   49.72%       0      2
    1621    51.000000   101.434949      3    320     16   49.72%      30      2
*   1639    53.000000   101.434949      4    320     25   47.75%       0      2
    1735    53.000000   101.434949      4    320     19   47.75%      33      2
    1844    53.000000   101.434949      4    331     22   47.75%      25      2
*   1932    59.000000   101.434949      5    366     26   41.83%       0      2
    1953    59.000000   101.434949      5    366     13   41.83%      35      2
B&B tree size: 4.0MB total
 
    Node     BestSoln    BestBound   Sols Active  Depth     Gap     GInf   Time
*   1984    60.000000   101.434949      6    366     22   40.85%       0      2
    2071    60.000000   101.434949      6    367      1   40.85%       1      2
    2192    60.000000   101.434949      6    367     22   40.85%      16      2
    2294    60.000000   101.434949      6    367     18   40.85%      27      2
    2401    60.000000   101.434949      6    367     20   40.85%      23      2
    2502    60.000000   101.434949      6    367     16   40.85%      31      3
    2603    60.000000    97.000000      6    441     16   38.14%      34      3
    2703    60.000000    97.000000      6    441     19   38.14%      32      3
    2804    60.000000    97.000000      6    502     22   38.14%      15      3
    2915    60.000000    95.557575      6    627     16   37.21%      37      3
    3033    60.000000    95.557575      6    627     16   37.21%      17      3
    3140    60.000000    95.557575      6    627     16   37.21%      28      3
    3249    60.000000    95.557575      6    627     15   37.21%      37      3
    3358    60.000000    95.557575      6    655     25   37.21%      23      3
    3459    60.000000    95.557575      6    655     22   37.21%      23      3
    3571    60.000000    95.557575      6    655     23   37.21%      12      3
    3680    60.000000    95.557575      6    655     21   37.21%      35      3
    3799    60.000000    95.557575      6    655     23   37.21%      29      3
    3925    60.000000    95.557575      6    655     20   37.21%      41      4
    4042    60.000000    95.557575      6    655     22   37.21%      30      4
B&B tree size: 7.5MB total
 
    Node     BestSoln    BestBound   Sols Active  Depth     Gap     GInf   Time
    4152    60.000000    95.557575      6    711     21   37.21%      29      4
    4263    60.000000    95.557575      6    719     25   37.21%      21      4
    4366    60.000000    95.557575      6    719     16   37.21%      28      4
    4474    60.000000    95.557575      6    801     19   37.21%      24      4
    4577    60.000000    95.557575      6    801     21   37.21%      40      4
    4686    60.000000    95.557575      6    801     17   37.21%      33      4
    4796    60.000000    95.557575      6    801     18   37.21%      33      4
    4925    60.000000    95.557575      6    801     25   37.21%      15      4
    5030    60.000000    95.557575      6    801     21   37.21%      28      4
    5135    60.000000    95.557575      6    923     16   37.21%      43      4
    5239    60.000000    95.557575      6    923     15   37.21%      46      4
    5341    60.000000    95.557575      6    981     16   37.21%      44      4
    5455    60.000000    95.557575      6    981     15   37.21%      38      4
    5561    60.000000    95.557575      6   1143     26   37.21%      30      5
    5665    60.000000    95.557575      6   1178     20   37.21%      27      5
    5772    60.000000    95.557575      6   1193     19   37.21%      34      5
    5886    60.000000    95.557575      6   1193     27   37.21%      12      5
    5986    60.000000    90.827618      6   1312     24   33.94%      17      5
    6101    60.000000    90.827618      6   1312     14   33.94%      39      5
    6227    60.000000    90.827618      6   1312     24   33.94%      28      5
B&B tree size: 10MB total
 
    Node     BestSoln    BestBound   Sols Active  Depth     Gap     GInf   Time
    6327    60.000000    90.827618      6   1365     21   33.94%      23      5
    6442    60.000000    90.827618      6   1365     24   33.94%      29      5
    6544    60.000000    90.827618      6   1365     20   33.94%      37      5
    6649    60.000000    90.827618      6   1365     20   33.94%      31      5
    6776    60.000000    90.827618      6   1365     22   33.94%      22      5
    6888    60.000000    90.827618      6   1365     14   33.94%      42      6
    6994    60.000000    90.827618      6   1375     20   33.94%       8      6
    7108    60.000000    90.827618      6   1417     23   33.94%      34      6
    7210    60.000000    90.186001      6   1533     21   33.47%      14      6
    7311    60.000000    90.186001      6   1533     18   33.47%      39      6
    7412    60.000000    89.251348      6   1570     13   32.77%      32      6
    7513    60.000000    89.251348      6   1570     21   32.77%      24      6
    7626    60.000000    88.146602      6   1605     16   31.93%      41      6
    7740    60.000000    88.146602      6   1605     25   31.93%      29      6
    7850    60.000000    88.146602      6   1605     23   31.93%      41      6
    7958    60.000000    87.628307      6   1635     17   31.53%      30      6
    8070    60.000000    87.628307      6   1635     16   31.53%      43      6
    8176    60.000000    87.628307      6   1635     16   31.53%      38      7
    8282    60.000000    87.628307      6   1635     17   31.53%      24      7
    8392    60.000000    87.628307      6   1635     17   31.53%      48      7
B&B tree size: 13MB total
 
    Node     BestSoln    BestBound   Sols Active  Depth     Gap     GInf   Time
    8492    60.000000    87.628307      6   1663     17   31.53%      44      7
    8596    60.000000    87.628307      6   1677     17   31.53%      37      7
    8696    60.000000    87.628307      6   1692     16   31.53%      27      7
    8800    60.000000    87.628307      6   1702     18   31.53%      24      7
    8912    60.000000    87.628307      6   1725     20   31.53%      42      7
    9021    60.000000    86.865353      6   1763     17   30.93%      33      7
    9125    60.000000    86.865353      6   1763     13   30.93%      23      7
    9242    60.000000    86.865353      6   1763     18   30.93%      35      7
    9347    60.000000    85.984128      6   1839     13   30.22%      32      8
    9465    60.000000    85.984128      6   1839     18   30.22%      30      8
    9574    60.000000    85.984128      6   1839     20   30.22%      22      8
    9693    60.000000    85.984128      6   1839     19   30.22%      44      8
    9796    60.000000    85.984128      6   1839     16   30.22%      35      8
    9896    60.000000    85.984128      6   1839     16   30.22%      50      8
   10014    60.000000    85.984128      6   1841     20   30.22%      32      8
   11016    60.000000    85.649123      6   1989     22   29.95%      21      9
   12032    60.000000    83.911508      6   2077     22   28.50%      29     10
   13034    60.000000    83.094905      6   2162     21   27.79%      31     10
   14048    60.000000    82.222222      6   2260     16   27.03%      37     11
   15062    60.000000    82.034371      6   2283     16   26.86%      37     12
B&B tree size: 22MB total
 
    Node     BestSoln    BestBound   Sols Active  Depth     Gap     GInf   Time
   16064    60.000000    82.000000      6   2351     16   26.83%      34     12
   17071    60.000000    82.000000      6   2451     24   26.83%      25     13
   18073    60.000000    82.000000      6   2522     16   26.83%      35     14
   19090    60.000000    81.273407      6   2590     25   26.18%      31     14
   20090    60.000000    79.578539      6   2601     17   24.60%      37     15
   21095    60.000000    78.753759      6   2601     18   23.81%      30     16
   22097    60.000000    78.323047      6   2596     21   23.39%      33     16
   23121    60.000000    78.000000      6   2586     15   23.08%      38     17
   24145    60.000000    77.217989      6   2570     24   22.30%      27     18
   25148    60.000000    76.523225      6   2585     18   21.59%      45     18
   26162    60.000000    75.917364      6   2564     21   20.97%      21     19
   27165    60.000000    75.303863      6   2542     21   20.32%      26     20
   28174    60.000000    75.022013      6   2514     16   20.02%      37     20
   29183    60.000000    75.000000      6   2503     23   20.00%      27     21
   30188    60.000000    75.000000      6   2491     18   20.00%      36     21
   31193    60.000000    74.000000      6   2460     16   18.92%      42     22
   32202    60.000000    74.000000      6   2416     23   18.92%      23     22
   33205    60.000000    73.000000      6   2361     17   17.81%      25     23
   34205    60.000000    72.763932      6   2239     20   17.54%      42     24
   35229    60.000000    72.000000      6   2135     24   16.67%      29     24
B&B tree size: 28MB total
 
    Node     BestSoln    BestBound   Sols Active  Depth     Gap     GInf   Time
   36229    60.000000    72.000000      6   2034     23   16.67%      30     25
   37235    60.000000    71.000000      6   1882     19   15.49%      25     25
   38240    60.000000    70.000000      6   1783     20   14.29%      34     26
   39253    60.000000    69.285714      6   1611     27   13.40%      15     26
   40260    60.000000    69.000000      6   1452     21   13.04%      30     26
   41260    60.000000    68.000000      6   1292     20   11.76%      42     27
   42261    60.000000    67.005051      6   1074     18   10.45%      37     27
   43268    60.000000    65.000000      6    646     23    7.69%      35     28
   44268    60.000000    63.000000      6    183     16    4.76%      24     28
 *** Search completed ***     Time:    28 Nodes:      44655
Number of integer feasible solutions found is 6
Best integer solution found is    60.000000
Best bound is    60.000000
Uncrunching matrix
